p cnf 932 2994
-929 66 0
-929 65 0
-929 64 0
929 -66 -65 -64 0
-932 64 66 0
-932 66 65 0
-932 65 64 0
932 -64 -66 0
932 -66 -65 0
932 -65 -64 0
-928 66 65 64 0
928 -66 0
928 -65 0
928 -64 0
931 -63 -62 0
-931 63 0
-931 62 0
-930 63 62 0
930 -63 0
930 -62 0
926 -932 -931 0
-926 932 0
-926 931 0
-924 932 931 0
924 -932 0
924 -931 0
-927 930 0
-927 929 0
-927 928 0
927 -930 -929 -928 0
-925 928 930 0
-925 930 929 0
-925 929 928 0
925 -928 -930 0
925 -930 -929 0
925 -929 -928 0
-907 930 929 928 0
907 -930 0
907 -929 0
907 -928 0
908 -927 -926 0
-908 927 0
-908 926 0
-917 927 926 0
917 -927 0
917 -926 0
911 -925 -924 0
-911 925 0
-911 924 0
-915 925 924 0
915 -925 0
915 -924 0
923 -61 -60 0
-923 61 0
-923 60 0
-921 61 60 0
921 -61 0
921 -60 0
922 -59 -58 0
-922 59 0
-922 58 0
-920 59 58 0
920 -59 0
920 -58 0
916 -923 -922 0
-916 923 0
-916 922 0
-918 923 922 0
918 -923 0
918 -922 0
919 -921 -920 0
-919 921 0
-919 920 0
-909 921 920 0
909 -921 0
909 -920 0
910 -919 -918 0
-910 919 0
-910 918 0
-914 919 918 0
914 -919 0
914 -918 0
901 -917 -916 0
-901 917 0
-901 916 0
-912 917 916 0
912 -917 0
912 -916 0
913 -915 -914 0
-913 915 0
-913 914 0
-895 915 914 0
895 -915 0
895 -914 0
899 -913 -912 0
-899 913 0
-899 912 0
-897 913 912 0
897 -913 0
897 -912 0
905 -911 -910 0
-905 911 0
-905 910 0
-903 911 910 0
903 -911 0
903 -910 0
-906 909 0
-906 908 0
-906 907 0
906 -909 -908 -907 0
-904 907 909 0
-904 909 908 0
-904 908 907 0
904 -907 -909 0
904 -909 -908 0
904 -908 -907 0
-836 909 908 907 0
836 -909 0
836 -908 0
836 -907 0
902 -906 -905 0
-902 906 0
-902 905 0
-900 906 905 0
900 -906 0
900 -905 0
898 -904 -903 0
-898 904 0
-898 903 0
-896 904 903 0
896 -904 0
896 -903 0
837 -902 -901 0
-837 902 0
-837 901 0
-864 902 901 0
864 -902 0
864 -901 0
846 -900 -899 0
-846 900 0
-846 899 0
-858 900 899 0
858 -900 0
858 -899 0
840 -898 -897 0
-840 898 0
-840 897 0
-862 898 897 0
862 -898 0
862 -897 0
844 -896 -895 0
-844 896 0
-844 895 0
-856 896 895 0
856 -896 0
856 -895 0
894 -57 -56 0
-894 57 0
-894 56 0
-892 57 56 0
892 -57 0
892 -56 0
893 -55 -54 0
-893 55 0
-893 54 0
-891 55 54 0
891 -55 0
891 -54 0
882 -894 -893 0
-882 894 0
-882 893 0
-889 894 893 0
889 -894 0
889 -893 0
890 -892 -891 0
-890 892 0
-890 891 0
-874 892 891 0
874 -892 0
874 -891 0
876 -890 -889 0
-876 890 0
-876 889 0
-880 890 889 0
880 -890 0
880 -889 0
888 -53 -52 0
-888 53 0
-888 52 0
-886 53 52 0
886 -53 0
886 -52 0
887 -51 -50 0
-887 51 0
-887 50 0
-885 51 50 0
885 -51 0
885 -50 0
881 -888 -887 0
-881 888 0
-881 887 0
-883 888 887 0
883 -888 0
883 -887 0
884 -886 -885 0
-884 886 0
-884 885 0
-873 886 885 0
873 -886 0
873 -885 0
875 -884 -883 0
-875 884 0
-875 883 0
-879 884 883 0
879 -884 0
879 -883 0
863 -882 -881 0
-863 882 0
-863 881 0
-877 882 881 0
877 -882 0
877 -881 0
878 -880 -879 0
-878 880 0
-878 879 0
-865 880 879 0
865 -880 0
865 -879 0
869 -878 -877 0
-869 878 0
-869 877 0
-867 878 877 0
867 -878 0
867 -877 0
870 -876 -875 0
-870 876 0
-870 875 0
-871 876 875 0
871 -876 0
871 -875 0
872 -874 -873 0
-872 874 0
-872 873 0
-838 874 873 0
838 -874 0
838 -873 0
868 -872 -871 0
-868 872 0
-868 871 0
-866 872 871 0
866 -872 0
866 -871 0
845 -870 -869 0
-845 870 0
-845 869 0
-857 870 869 0
857 -870 0
857 -869 0
839 -868 -867 0
-839 868 0
-839 867 0
-861 868 867 0
861 -868 0
861 -867 0
843 -866 -865 0
-843 866 0
-843 865 0
-855 866 865 0
855 -866 0
855 -865 0
822 -864 -863 0
-822 864 0
-822 863 0
-859 864 863 0
859 -864 0
859 -863 0
860 -862 -861 0
-860 862 0
-860 861 0
-847 862 861 0
847 -862 0
847 -861 0
851 -860 -859 0
-851 860 0
-851 859 0
-849 860 859 0
849 -860 0
849 -859 0
852 -858 -857 0
-852 858 0
-852 857 0
-853 858 857 0
853 -858 0
853 -857 0
854 -856 -855 0
-854 856 0
-854 855 0
-808 856 855 0
808 -856 0
808 -855 0
850 -854 -853 0
-850 854 0
-850 853 0
-848 854 853 0
848 -854 0
848 -853 0
820 -852 -851 0
-820 852 0
-820 851 0
-818 852 851 0
818 -852 0
818 -851 0
816 -850 -849 0
-816 850 0
-816 849 0
-814 850 849 0
814 -850 0
814 -849 0
812 -848 -847 0
-812 848 0
-812 847 0
-810 848 847 0
810 -848 0
810 -847 0
830 -846 -845 0
-830 846 0
-830 845 0
-841 846 845 0
841 -846 0
841 -845 0
842 -844 -843 0
-842 844 0
-842 843 0
-824 844 843 0
824 -844 0
824 -843 0
828 -842 -841 0
-828 842 0
-828 841 0
-826 842 841 0
826 -842 0
826 -841 0
834 -840 -839 0
-834 840 0
-834 839 0
-832 840 839 0
832 -840 0
832 -839 0
-835 838 0
-835 837 0
-835 836 0
835 -838 -837 -836 0
-833 836 838 0
-833 838 837 0
-833 837 836 0
833 -836 -838 0
833 -838 -837 0
833 -837 -836 0
-619 838 837 836 0
619 -838 0
619 -837 0
619 -836 0
831 -835 -834 0
-831 835 0
-831 834 0
-829 835 834 0
829 -835 0
829 -834 0
827 -833 -832 0
-827 833 0
-827 832 0
-825 833 832 0
825 -833 0
825 -832 0
823 -831 -830 0
-823 831 0
-823 830 0
-821 831 830 0
821 -831 0
821 -830 0
819 -829 -828 0
-819 829 0
-819 828 0
-817 829 828 0
817 -829 0
817 -828 0
815 -827 -826 0
-815 827 0
-815 826 0
-813 827 826 0
813 -827 0
813 -826 0
811 -825 -824 0
-811 825 0
-811 824 0
-809 825 824 0
809 -825 0
809 -824 0
620 -823 -822 0
-620 823 0
-620 822 0
-697 823 822 0
697 -823 0
697 -822 0
647 -821 -820 0
-647 821 0
-647 820 0
-679 821 820 0
679 -821 0
679 -820 0
629 -819 -818 0
-629 819 0
-629 818 0
-691 819 818 0
691 -819 0
691 -818 0
641 -817 -816 0
-641 817 0
-641 816 0
-673 817 816 0
673 -817 0
673 -816 0
623 -815 -814 0
-623 815 0
-623 814 0
-695 815 814 0
695 -815 0
695 -814 0
645 -813 -812 0
-645 813 0
-645 812 0
-677 813 812 0
677 -813 0
677 -812 0
627 -811 -810 0
-627 811 0
-627 810 0
-689 811 810 0
689 -811 0
689 -810 0
639 -809 -808 0
-639 809 0
-639 808 0
-671 809 808 0
671 -809 0
671 -808 0
807 -49 -48 0
-807 49 0
-807 48 0
-805 49 48 0
805 -49 0
805 -48 0
806 -47 -46 0
-806 47 0
-806 46 0
-804 47 46 0
804 -47 0
804 -46 0
795 -807 -806 0
-795 807 0
-795 806 0
-802 807 806 0
802 -807 0
802 -806 0
803 -805 -804 0
-803 805 0
-803 804 0
-787 805 804 0
787 -805 0
787 -804 0
789 -803 -802 0
-789 803 0
-789 802 0
-793 803 802 0
793 -803 0
793 -802 0
801 -45 -44 0
-801 45 0
-801 44 0
-799 45 44 0
799 -45 0
799 -44 0
800 -43 -42 0
-800 43 0
-800 42 0
-798 43 42 0
798 -43 0
798 -42 0
794 -801 -800 0
-794 801 0
-794 800 0
-796 801 800 0
796 -801 0
796 -800 0
797 -799 -798 0
-797 799 0
-797 798 0
-786 799 798 0
786 -799 0
786 -798 0
788 -797 -796 0
-788 797 0
-788 796 0
-792 797 796 0
792 -797 0
792 -796 0
747 -795 -794 0
-747 795 0
-747 794 0
-790 795 794 0
790 -795 0
790 -794 0
791 -793 -792 0
-791 793 0
-791 792 0
-778 793 792 0
778 -793 0
778 -792 0
782 -791 -790 0
-782 791 0
-782 790 0
-780 791 790 0
780 -791 0
780 -790 0
783 -789 -788 0
-783 789 0
-783 788 0
-784 789 788 0
784 -789 0
784 -788 0
785 -787 -786 0
-785 787 0
-785 786 0
-721 787 786 0
721 -787 0
721 -786 0
781 -785 -784 0
-781 785 0
-781 784 0
-779 785 784 0
779 -785 0
779 -784 0
729 -783 -782 0
-729 783 0
-729 782 0
-741 783 782 0
741 -783 0
741 -782 0
723 -781 -780 0
-723 781 0
-723 780 0
-745 781 780 0
745 -781 0
745 -780 0
727 -779 -778 0
-727 779 0
-727 778 0
-739 779 778 0
739 -779 0
739 -778 0
777 -41 -40 0
-777 41 0
-777 40 0
-775 41 40 0
775 -41 0
775 -40 0
776 -39 -38 0
-776 39 0
-776 38 0
-774 39 38 0
774 -39 0
774 -38 0
765 -777 -776 0
-765 777 0
-765 776 0
-772 777 776 0
772 -777 0
772 -776 0
773 -775 -774 0
-773 775 0
-773 774 0
-757 775 774 0
757 -775 0
757 -774 0
759 -773 -772 0
-759 773 0
-759 772 0
-763 773 772 0
763 -773 0
763 -772 0
771 -37 -36 0
-771 37 0
-771 36 0
-769 37 36 0
769 -37 0
769 -36 0
770 -35 -34 0
-770 35 0
-770 34 0
-768 35 34 0
768 -35 0
768 -34 0
764 -771 -770 0
-764 771 0
-764 770 0
-766 771 770 0
766 -771 0
766 -770 0
767 -769 -768 0
-767 769 0
-767 768 0
-756 769 768 0
756 -769 0
756 -768 0
758 -767 -766 0
-758 767 0
-758 766 0
-762 767 766 0
762 -767 0
762 -766 0
746 -765 -764 0
-746 765 0
-746 764 0
-760 765 764 0
760 -765 0
760 -764 0
761 -763 -762 0
-761 763 0
-761 762 0
-748 763 762 0
748 -763 0
748 -762 0
752 -761 -760 0
-752 761 0
-752 760 0
-750 761 760 0
750 -761 0
750 -760 0
753 -759 -758 0
-753 759 0
-753 758 0
-754 759 758 0
754 -759 0
754 -758 0
755 -757 -756 0
-755 757 0
-755 756 0
-720 757 756 0
720 -757 0
720 -756 0
751 -755 -754 0
-751 755 0
-751 754 0
-749 755 754 0
749 -755 0
749 -754 0
728 -753 -752 0
-728 753 0
-728 752 0
-740 753 752 0
740 -753 0
740 -752 0
722 -751 -750 0
-722 751 0
-722 750 0
-744 751 750 0
744 -751 0
744 -750 0
726 -749 -748 0
-726 749 0
-726 748 0
-738 749 748 0
738 -749 0
738 -748 0
696 -747 -746 0
-696 747 0
-696 746 0
-742 747 746 0
742 -747 0
742 -746 0
743 -745 -744 0
-743 745 0
-743 744 0
-730 745 744 0
730 -745 0
730 -744 0
734 -743 -742 0
-734 743 0
-734 742 0
-732 743 742 0
732 -743 0
732 -742 0
735 -741 -740 0
-735 741 0
-735 740 0
-736 741 740 0
736 -741 0
736 -740 0
737 -739 -738 0
-737 739 0
-737 738 0
-698 739 738 0
698 -739 0
698 -738 0
733 -737 -736 0
-733 737 0
-733 736 0
-731 737 736 0
731 -737 0
731 -736 0
710 -735 -734 0
-710 735 0
-710 734 0
-708 735 734 0
708 -735 0
708 -734 0
706 -733 -732 0
-706 733 0
-706 732 0
-704 733 732 0
704 -733 0
704 -732 0
702 -731 -730 0
-702 731 0
-702 730 0
-700 731 730 0
700 -731 0
700 -730 0
711 -729 -728 0
-711 729 0
-711 728 0
-724 729 728 0
724 -729 0
724 -728 0
725 -727 -726 0
-725 727 0
-725 726 0
-712 727 726 0
712 -727 0
712 -726 0
716 -725 -724 0
-716 725 0
-716 724 0
-714 725 724 0
714 -725 0
714 -724 0
717 -723 -722 0
-717 723 0
-717 722 0
-718 723 722 0
718 -723 0
718 -722 0
719 -721 -720 0
-719 721 0
-719 720 0
-621 721 720 0
621 -721 0
621 -720 0
715 -719 -718 0
-715 719 0
-715 718 0
-713 719 718 0
713 -719 0
713 -718 0
709 -717 -716 0
-709 717 0
-709 716 0
-707 717 716 0
707 -717 0
707 -716 0
705 -715 -714 0
-705 715 0
-705 714 0
-703 715 714 0
703 -715 0
703 -714 0
701 -713 -712 0
-701 713 0
-701 712 0
-699 713 712 0
699 -713 0
699 -712 0
646 -711 -710 0
-646 711 0
-646 710 0
-678 711 710 0
678 -711 0
678 -710 0
628 -709 -708 0
-628 709 0
-628 708 0
-690 709 708 0
690 -709 0
690 -708 0
640 -707 -706 0
-640 707 0
-640 706 0
-672 707 706 0
672 -707 0
672 -706 0
622 -705 -704 0
-622 705 0
-622 704 0
-694 705 704 0
694 -705 0
694 -704 0
644 -703 -702 0
-644 703 0
-644 702 0
-676 703 702 0
676 -703 0
676 -702 0
626 -701 -700 0
-626 701 0
-626 700 0
-688 701 700 0
688 -701 0
688 -700 0
638 -699 -698 0
-638 699 0
-638 698 0
-670 699 698 0
670 -699 0
670 -698 0
589 -697 -696 0
-589 697 0
-589 696 0
-692 697 696 0
692 -697 0
692 -696 0
693 -695 -694 0
-693 695 0
-693 694 0
-680 695 694 0
680 -695 0
680 -694 0
684 -693 -692 0
-684 693 0
-684 692 0
-682 693 692 0
682 -693 0
682 -692 0
685 -691 -690 0
-685 691 0
-685 690 0
-686 691 690 0
686 -691 0
686 -690 0
687 -689 -688 0
-687 689 0
-687 688 0
-648 689 688 0
648 -689 0
648 -688 0
683 -687 -686 0
-683 687 0
-683 686 0
-681 687 686 0
681 -687 0
681 -686 0
660 -685 -684 0
-660 685 0
-660 684 0
-658 685 684 0
658 -685 0
658 -684 0
656 -683 -682 0
-656 683 0
-656 682 0
-654 683 682 0
654 -683 0
654 -682 0
652 -681 -680 0
-652 681 0
-652 680 0
-650 681 680 0
650 -681 0
650 -680 0
661 -679 -678 0
-661 679 0
-661 678 0
-674 679 678 0
674 -679 0
674 -678 0
675 -677 -676 0
-675 677 0
-675 676 0
-662 677 676 0
662 -677 0
662 -676 0
666 -675 -674 0
-666 675 0
-666 674 0
-664 675 674 0
664 -675 0
664 -674 0
667 -673 -672 0
-667 673 0
-667 672 0
-668 673 672 0
668 -673 0
668 -672 0
669 -671 -670 0
-669 671 0
-669 670 0
-559 671 670 0
559 -671 0
559 -670 0
665 -669 -668 0
-665 669 0
-665 668 0
-663 669 668 0
663 -669 0
663 -668 0
659 -667 -666 0
-659 667 0
-659 666 0
-657 667 666 0
657 -667 0
657 -666 0
655 -665 -664 0
-655 665 0
-655 664 0
-653 665 664 0
653 -665 0
653 -664 0
651 -663 -662 0
-651 663 0
-651 662 0
-649 663 662 0
649 -663 0
649 -662 0
587 -661 -660 0
-587 661 0
-587 660 0
-585 661 660 0
585 -661 0
585 -660 0
583 -659 -658 0
-583 659 0
-583 658 0
-581 659 658 0
581 -659 0
581 -658 0
579 -657 -656 0
-579 657 0
-579 656 0
-577 657 656 0
577 -657 0
577 -656 0
575 -655 -654 0
-575 655 0
-575 654 0
-573 655 654 0
573 -655 0
573 -654 0
571 -653 -652 0
-571 653 0
-571 652 0
-569 653 652 0
569 -653 0
569 -652 0
567 -651 -650 0
-567 651 0
-567 650 0
-565 651 650 0
565 -651 0
565 -650 0
563 -649 -648 0
-563 649 0
-563 648 0
-561 649 648 0
561 -649 0
561 -648 0
605 -647 -646 0
-605 647 0
-605 646 0
-642 647 646 0
642 -647 0
642 -646 0
643 -645 -644 0
-643 645 0
-643 644 0
-630 645 644 0
630 -645 0
630 -644 0
634 -643 -642 0
-634 643 0
-634 642 0
-632 643 642 0
632 -643 0
632 -642 0
635 -641 -640 0
-635 641 0
-635 640 0
-636 641 640 0
636 -641 0
636 -640 0
637 -639 -638 0
-637 639 0
-637 638 0
-591 639 638 0
591 -639 0
591 -638 0
633 -637 -636 0
-633 637 0
-633 636 0
-631 637 636 0
631 -637 0
631 -636 0
603 -635 -634 0
-603 635 0
-603 634 0
-601 635 634 0
601 -635 0
601 -634 0
599 -633 -632 0
-599 633 0
-599 632 0
-597 633 632 0
597 -633 0
597 -632 0
595 -631 -630 0
-595 631 0
-595 630 0
-593 631 630 0
593 -631 0
593 -630 0
613 -629 -628 0
-613 629 0
-613 628 0
-624 629 628 0
624 -629 0
624 -628 0
625 -627 -626 0
-625 627 0
-625 626 0
-607 627 626 0
607 -627 0
607 -626 0
611 -625 -624 0
-611 625 0
-611 624 0
-609 625 624 0
609 -625 0
609 -624 0
617 -623 -622 0
-617 623 0
-617 622 0
-615 623 622 0
615 -623 0
615 -622 0
-618 621 0
-618 620 0
-618 619 0
618 -621 -620 -619 0
-616 619 621 0
-616 621 620 0
-616 620 619 0
616 -619 -621 0
616 -621 -620 0
616 -620 -619 0
-78 621 620 619 0
78 -621 0
78 -620 0
78 -619 0
614 -618 -617 0
-614 618 0
-614 617 0
-612 618 617 0
612 -618 0
612 -617 0
610 -616 -615 0
-610 616 0
-610 615 0
-608 616 615 0
608 -616 0
608 -615 0
606 -614 -613 0
-606 614 0
-606 613 0
-604 614 613 0
604 -614 0
604 -613 0
602 -612 -611 0
-602 612 0
-602 611 0
-600 612 611 0
600 -612 0
600 -611 0
598 -610 -609 0
-598 610 0
-598 609 0
-596 610 609 0
596 -610 0
596 -609 0
594 -608 -607 0
-594 608 0
-594 607 0
-592 608 607 0
592 -608 0
592 -607 0
590 -606 -605 0
-590 606 0
-590 605 0
-588 606 605 0
588 -606 0
588 -605 0
586 -604 -603 0
-586 604 0
-586 603 0
-584 604 603 0
584 -604 0
584 -603 0
582 -602 -601 0
-582 602 0
-582 601 0
-580 602 601 0
580 -602 0
580 -601 0
578 -600 -599 0
-578 600 0
-578 599 0
-576 600 599 0
576 -600 0
576 -599 0
574 -598 -597 0
-574 598 0
-574 597 0
-572 598 597 0
572 -598 0
572 -597 0
570 -596 -595 0
-570 596 0
-570 595 0
-568 596 595 0
568 -596 0
568 -595 0
566 -594 -593 0
-566 594 0
-566 593 0
-564 594 593 0
564 -594 0
564 -593 0
562 -592 -591 0
-562 592 0
-562 591 0
-560 592 591 0
560 -592 0
560 -591 0
80 -590 -589 0
-80 590 0
-80 589 0
-184 590 589 0
184 -590 0
184 -589 0
132 -588 -587 0
-132 588 0
-132 587 0
-154 588 587 0
154 -588 0
154 -587 0
102 -586 -585 0
-102 586 0
-102 585 0
-170 586 585 0
170 -586 0
170 -585 0
118 -584 -583 0
-118 584 0
-118 583 0
-140 584 583 0
140 -584 0
140 -583 0
88 -582 -581 0
-88 582 0
-88 581 0
-178 582 581 0
178 -582 0
178 -581 0
126 -580 -579 0
-126 580 0
-126 579 0
-148 580 579 0
148 -580 0
148 -579 0
96 -578 -577 0
-96 578 0
-96 577 0
-164 578 577 0
164 -578 0
164 -577 0
112 -576 -575 0
-112 576 0
-112 575 0
-134 576 575 0
134 -576 0
134 -575 0
82 -574 -573 0
-82 574 0
-82 573 0
-182 574 573 0
182 -574 0
182 -573 0
130 -572 -571 0
-130 572 0
-130 571 0
-152 572 571 0
152 -572 0
152 -571 0
100 -570 -569 0
-100 570 0
-100 569 0
-168 570 569 0
168 -570 0
168 -569 0
116 -568 -567 0
-116 568 0
-116 567 0
-138 568 567 0
138 -568 0
138 -567 0
86 -566 -565 0
-86 566 0
-86 565 0
-176 566 565 0
176 -566 0
176 -565 0
124 -564 -563 0
-124 564 0
-124 563 0
-146 564 563 0
146 -564 0
146 -563 0
94 -562 -561 0
-94 562 0
-94 561 0
-162 562 561 0
162 -562 0
162 -561 0
110 -560 -559 0
-110 560 0
-110 559 0
-555 33 0
-555 32 0
-555 31 0
555 -33 -32 -31 0
-558 31 33 0
-558 33 32 0
-558 32 31 0
558 -31 -33 0
558 -33 -32 0
558 -32 -31 0
-554 33 32 31 0
554 -33 0
554 -32 0
554 -31 0
557 -30 -29 0
-557 30 0
-557 29 0
-556 30 29 0
556 -30 0
556 -29 0
552 -558 -557 0
-552 558 0
-552 557 0
-550 558 557 0
550 -558 0
550 -557 0
-553 556 0
-553 555 0
-553 554 0
553 -556 -555 -554 0
-551 554 556 0
-551 556 555 0
-551 555 554 0
551 -554 -556 0
551 -556 -555 0
551 -555 -554 0
-533 556 555 554 0
533 -556 0
533 -555 0
533 -554 0
534 -553 -552 0
-534 553 0
-534 552 0
-543 553 552 0
543 -553 0
543 -552 0
537 -551 -550 0
-537 551 0
-537 550 0
-541 551 550 0
541 -551 0
541 -550 0
549 -28 -27 0
-549 28 0
-549 27 0
-547 28 27 0
547 -28 0
547 -27 0
548 -26 -25 0
-548 26 0
-548 25 0
-546 26 25 0
546 -26 0
546 -25 0
542 -549 -548 0
-542 549 0
-542 548 0
-544 549 548 0
544 -549 0
544 -548 0
545 -547 -546 0
-545 547 0
-545 546 0
-535 547 546 0
535 -547 0
535 -546 0
536 -545 -544 0
-536 545 0
-536 544 0
-540 545 544 0
540 -545 0
540 -544 0
527 -543 -542 0
-527 543 0
-527 542 0
-538 543 542 0
538 -543 0
538 -542 0
539 -541 -540 0
-539 541 0
-539 540 0
-521 541 540 0
521 -541 0
521 -540 0
525 -539 -538 0
-525 539 0
-525 538 0
-523 539 538 0
523 -539 0
523 -538 0
531 -537 -536 0
-531 537 0
-531 536 0
-529 537 536 0
529 -537 0
529 -536 0
-532 535 0
-532 534 0
-532 533 0
532 -535 -534 -533 0
-530 533 535 0
-530 535 534 0
-530 534 533 0
530 -533 -535 0
530 -535 -534 0
530 -534 -533 0
-462 535 534 533 0
462 -535 0
462 -534 0
462 -533 0
528 -532 -531 0
-528 532 0
-528 531 0
-526 532 531 0
526 -532 0
526 -531 0
524 -530 -529 0
-524 530 0
-524 529 0
-522 530 529 0
522 -530 0
522 -529 0
463 -528 -527 0
-463 528 0
-463 527 0
-490 528 527 0
490 -528 0
490 -527 0
472 -526 -525 0
-472 526 0
-472 525 0
-484 526 525 0
484 -526 0
484 -525 0
466 -524 -523 0
-466 524 0
-466 523 0
-488 524 523 0
488 -524 0
488 -523 0
470 -522 -521 0
-470 522 0
-470 521 0
-482 522 521 0
482 -522 0
482 -521 0
520 -24 -23 0
-520 24 0
-520 23 0
-518 24 23 0
518 -24 0
518 -23 0
519 -22 -21 0
-519 22 0
-519 21 0
-517 22 21 0
517 -22 0
517 -21 0
508 -520 -519 0
-508 520 0
-508 519 0
-515 520 519 0
515 -520 0
515 -519 0
516 -518 -517 0
-516 518 0
-516 517 0
-500 518 517 0
500 -518 0
500 -517 0
502 -516 -515 0
-502 516 0
-502 515 0
-506 516 515 0
506 -516 0
506 -515 0
514 -20 -19 0
-514 20 0
-514 19 0
-512 20 19 0
512 -20 0
512 -19 0
513 -18 -17 0
-513 18 0
-513 17 0
-511 18 17 0
511 -18 0
511 -17 0
507 -514 -513 0
-507 514 0
-507 513 0
-509 514 513 0
509 -514 0
509 -513 0
510 -512 -511 0
-510 512 0
-510 511 0
-499 512 511 0
499 -512 0
499 -511 0
501 -510 -509 0
-501 510 0
-501 509 0
-505 510 509 0
505 -510 0
505 -509 0
489 -508 -507 0
-489 508 0
-489 507 0
-503 508 507 0
503 -508 0
503 -507 0
504 -506 -505 0
-504 506 0
-504 505 0
-491 506 505 0
491 -506 0
491 -505 0
495 -504 -503 0
-495 504 0
-495 503 0
-493 504 503 0
493 -504 0
493 -503 0
496 -502 -501 0
-496 502 0
-496 501 0
-497 502 501 0
497 -502 0
497 -501 0
498 -500 -499 0
-498 500 0
-498 499 0
-464 500 499 0
464 -500 0
464 -499 0
494 -498 -497 0
-494 498 0
-494 497 0
-492 498 497 0
492 -498 0
492 -497 0
471 -496 -495 0
-471 496 0
-471 495 0
-483 496 495 0
483 -496 0
483 -495 0
465 -494 -493 0
-465 494 0
-465 493 0
-487 494 493 0
487 -494 0
487 -493 0
469 -492 -491 0
-469 492 0
-469 491 0
-481 492 491 0
481 -492 0
481 -491 0
448 -490 -489 0
-448 490 0
-448 489 0
-485 490 489 0
485 -490 0
485 -489 0
486 -488 -487 0
-486 488 0
-486 487 0
-473 488 487 0
473 -488 0
473 -487 0
477 -486 -485 0
-477 486 0
-477 485 0
-475 486 485 0
475 -486 0
475 -485 0
478 -484 -483 0
-478 484 0
-478 483 0
-479 484 483 0
479 -484 0
479 -483 0
480 -482 -481 0
-480 482 0
-480 481 0
-434 482 481 0
434 -482 0
434 -481 0
476 -480 -479 0
-476 480 0
-476 479 0
-474 480 479 0
474 -480 0
474 -479 0
446 -478 -477 0
-446 478 0
-446 477 0
-444 478 477 0
444 -478 0
444 -477 0
442 -476 -475 0
-442 476 0
-442 475 0
-440 476 475 0
440 -476 0
440 -475 0
438 -474 -473 0
-438 474 0
-438 473 0
-436 474 473 0
436 -474 0
436 -473 0
456 -472 -471 0
-456 472 0
-456 471 0
-467 472 471 0
467 -472 0
467 -471 0
468 -470 -469 0
-468 470 0
-468 469 0
-450 470 469 0
450 -470 0
450 -469 0
454 -468 -467 0
-454 468 0
-454 467 0
-452 468 467 0
452 -468 0
452 -467 0
460 -466 -465 0
-460 466 0
-460 465 0
-458 466 465 0
458 -466 0
458 -465 0
-461 464 0
-461 463 0
-461 462 0
461 -464 -463 -462 0
-459 462 464 0
-459 464 463 0
-459 463 462 0
459 -462 -464 0
459 -464 -463 0
459 -463 -462 0
-245 464 463 462 0
245 -464 0
245 -463 0
245 -462 0
457 -461 -460 0
-457 461 0
-457 460 0
-455 461 460 0
455 -461 0
455 -460 0
453 -459 -458 0
-453 459 0
-453 458 0
-451 459 458 0
451 -459 0
451 -458 0
449 -457 -456 0
-449 457 0
-449 456 0
-447 457 456 0
447 -457 0
447 -456 0
445 -455 -454 0
-445 455 0
-445 454 0
-443 455 454 0
443 -455 0
443 -454 0
441 -453 -452 0
-441 453 0
-441 452 0
-439 453 452 0
439 -453 0
439 -452 0
437 -451 -450 0
-437 451 0
-437 450 0
-435 451 450 0
435 -451 0
435 -450 0
246 -449 -448 0
-246 449 0
-246 448 0
-323 449 448 0
323 -449 0
323 -448 0
273 -447 -446 0
-273 447 0
-273 446 0
-305 447 446 0
305 -447 0
305 -446 0
255 -445 -444 0
-255 445 0
-255 444 0
-317 445 444 0
317 -445 0
317 -444 0
267 -443 -442 0
-267 443 0
-267 442 0
-299 443 442 0
299 -443 0
299 -442 0
249 -441 -440 0
-249 441 0
-249 440 0
-321 441 440 0
321 -441 0
321 -440 0
271 -439 -438 0
-271 439 0
-271 438 0
-303 439 438 0
303 -439 0
303 -438 0
253 -437 -436 0
-253 437 0
-253 436 0
-315 437 436 0
315 -437 0
315 -436 0
265 -435 -434 0
-265 435 0
-265 434 0
-297 435 434 0
297 -435 0
297 -434 0
433 -16 -15 0
-433 16 0
-433 15 0
-431 16 15 0
431 -16 0
431 -15 0
432 -14 -13 0
-432 14 0
-432 13 0
-430 14 13 0
430 -14 0
430 -13 0
421 -433 -432 0
-421 433 0
-421 432 0
-428 433 432 0
428 -433 0
428 -432 0
429 -431 -430 0
-429 431 0
-429 430 0
-413 431 430 0
413 -431 0
413 -430 0
415 -429 -428 0
-415 429 0
-415 428 0
-419 429 428 0
419 -429 0
419 -428 0
427 -12 -11 0
-427 12 0
-427 11 0
-425 12 11 0
425 -12 0
425 -11 0
426 -10 -9 0
-426 10 0
-426 9 0
-424 10 9 0
424 -10 0
424 -9 0
420 -427 -426 0
-420 427 0
-420 426 0
-422 427 426 0
422 -427 0
422 -426 0
423 -425 -424 0
-423 425 0
-423 424 0
-412 425 424 0
412 -425 0
412 -424 0
414 -423 -422 0
-414 423 0
-414 422 0
-418 423 422 0
418 -423 0
418 -422 0
373 -421 -420 0
-373 421 0
-373 420 0
-416 421 420 0
416 -421 0
416 -420 0
417 -419 -418 0
-417 419 0
-417 418 0
-404 419 418 0
404 -419 0
404 -418 0
408 -417 -416 0
-408 417 0
-408 416 0
-406 417 416 0
406 -417 0
406 -416 0
409 -415 -414 0
-409 415 0
-409 414 0
-410 415 414 0
410 -415 0
410 -414 0
411 -413 -412 0
-411 413 0
-411 412 0
-347 413 412 0
347 -413 0
347 -412 0
407 -411 -410 0
-407 411 0
-407 410 0
-405 411 410 0
405 -411 0
405 -410 0
355 -409 -408 0
-355 409 0
-355 408 0
-367 409 408 0
367 -409 0
367 -408 0
349 -407 -406 0
-349 407 0
-349 406 0
-371 407 406 0
371 -407 0
371 -406 0
353 -405 -404 0
-353 405 0
-353 404 0
-365 405 404 0
365 -405 0
365 -404 0
403 -8 -7 0
-403 8 0
-403 7 0
-401 8 7 0
401 -8 0
401 -7 0
402 -6 -5 0
-402 6 0
-402 5 0
-400 6 5 0
400 -6 0
400 -5 0
391 -403 -402 0
-391 403 0
-391 402 0
-398 403 402 0
398 -403 0
398 -402 0
399 -401 -400 0
-399 401 0
-399 400 0
-383 401 400 0
383 -401 0
383 -400 0
385 -399 -398 0
-385 399 0
-385 398 0
-389 399 398 0
389 -399 0
389 -398 0
397 -4 -3 0
-397 4 0
-397 3 0
-395 4 3 0
395 -4 0
395 -3 0
396 -2 -1 0
-396 2 0
-396 1 0
-394 2 1 0
394 -2 0
394 -1 0
390 -397 -396 0
-390 397 0
-390 396 0
-392 397 396 0
392 -397 0
392 -396 0
393 -395 -394 0
-393 395 0
-393 394 0
-382 395 394 0
382 -395 0
382 -394 0
384 -393 -392 0
-384 393 0
-384 392 0
-388 393 392 0
388 -393 0
388 -392 0
372 -391 -390 0
-372 391 0
-372 390 0
-386 391 390 0
386 -391 0
386 -390 0
387 -389 -388 0
-387 389 0
-387 388 0
-374 389 388 0
374 -389 0
374 -388 0
378 -387 -386 0
-378 387 0
-378 386 0
-376 387 386 0
376 -387 0
376 -386 0
379 -385 -384 0
-379 385 0
-379 384 0
-380 385 384 0
380 -385 0
380 -384 0
381 -383 -382 0
-381 383 0
-381 382 0
-346 383 382 0
346 -383 0
346 -382 0
377 -381 -380 0
-377 381 0
-377 380 0
-375 381 380 0
375 -381 0
375 -380 0
354 -379 -378 0
-354 379 0
-354 378 0
-366 379 378 0
366 -379 0
366 -378 0
348 -377 -376 0
-348 377 0
-348 376 0
-370 377 376 0
370 -377 0
370 -376 0
352 -375 -374 0
-352 375 0
-352 374 0
-364 375 374 0
364 -375 0
364 -374 0
322 -373 -372 0
-322 373 0
-322 372 0
-368 373 372 0
368 -373 0
368 -372 0
369 -371 -370 0
-369 371 0
-369 370 0
-356 371 370 0
356 -371 0
356 -370 0
360 -369 -368 0
-360 369 0
-360 368 0
-358 369 368 0
358 -369 0
358 -368 0
361 -367 -366 0
-361 367 0
-361 366 0
-362 367 366 0
362 -367 0
362 -366 0
363 -365 -364 0
-363 365 0
-363 364 0
-324 365 364 0
324 -365 0
324 -364 0
359 -363 -362 0
-359 363 0
-359 362 0
-357 363 362 0
357 -363 0
357 -362 0
336 -361 -360 0
-336 361 0
-336 360 0
-334 361 360 0
334 -361 0
334 -360 0
332 -359 -358 0
-332 359 0
-332 358 0
-330 359 358 0
330 -359 0
330 -358 0
328 -357 -356 0
-328 357 0
-328 356 0
-326 357 356 0
326 -357 0
326 -356 0
337 -355 -354 0
-337 355 0
-337 354 0
-350 355 354 0
350 -355 0
350 -354 0
351 -353 -352 0
-351 353 0
-351 352 0
-338 353 352 0
338 -353 0
338 -352 0
342 -351 -350 0
-342 351 0
-342 350 0
-340 351 350 0
340 -351 0
340 -350 0
343 -349 -348 0
-343 349 0
-343 348 0
-344 349 348 0
344 -349 0
344 -348 0
345 -347 -346 0
-345 347 0
-345 346 0
-247 347 346 0
247 -347 0
247 -346 0
341 -345 -344 0
-341 345 0
-341 344 0
-339 345 344 0
339 -345 0
339 -344 0
335 -343 -342 0
-335 343 0
-335 342 0
-333 343 342 0
333 -343 0
333 -342 0
331 -341 -340 0
-331 341 0
-331 340 0
-329 341 340 0
329 -341 0
329 -340 0
327 -339 -338 0
-327 339 0
-327 338 0
-325 339 338 0
325 -339 0
325 -338 0
272 -337 -336 0
-272 337 0
-272 336 0
-304 337 336 0
304 -337 0
304 -336 0
254 -335 -334 0
-254 335 0
-254 334 0
-316 335 334 0
316 -335 0
316 -334 0
266 -333 -332 0
-266 333 0
-266 332 0
-298 333 332 0
298 -333 0
298 -332 0
248 -331 -330 0
-248 331 0
-248 330 0
-320 331 330 0
320 -331 0
320 -330 0
270 -329 -328 0
-270 329 0
-270 328 0
-302 329 328 0
302 -329 0
302 -328 0
252 -327 -326 0
-252 327 0
-252 326 0
-314 327 326 0
314 -327 0
314 -326 0
264 -325 -324 0
-264 325 0
-264 324 0
-296 325 324 0
296 -325 0
296 -324 0
215 -323 -322 0
-215 323 0
-215 322 0
-318 323 322 0
318 -323 0
318 -322 0
319 -321 -320 0
-319 321 0
-319 320 0
-306 321 320 0
306 -321 0
306 -320 0
310 -319 -318 0
-310 319 0
-310 318 0
-308 319 318 0
308 -319 0
308 -318 0
311 -317 -316 0
-311 317 0
-311 316 0
-312 317 316 0
312 -317 0
312 -316 0
313 -315 -314 0
-313 315 0
-313 314 0
-274 315 314 0
274 -315 0
274 -314 0
309 -313 -312 0
-309 313 0
-309 312 0
-307 313 312 0
307 -313 0
307 -312 0
286 -311 -310 0
-286 311 0
-286 310 0
-284 311 310 0
284 -311 0
284 -310 0
282 -309 -308 0
-282 309 0
-282 308 0
-280 309 308 0
280 -309 0
280 -308 0
278 -307 -306 0
-278 307 0
-278 306 0
-276 307 306 0
276 -307 0
276 -306 0
287 -305 -304 0
-287 305 0
-287 304 0
-300 305 304 0
300 -305 0
300 -304 0
301 -303 -302 0
-301 303 0
-301 302 0
-288 303 302 0
288 -303 0
288 -302 0
292 -301 -300 0
-292 301 0
-292 300 0
-290 301 300 0
290 -301 0
290 -300 0
293 -299 -298 0
-293 299 0
-293 298 0
-294 299 298 0
294 -299 0
294 -298 0
295 -297 -296 0
-295 297 0
-295 296 0
-185 297 296 0
185 -297 0
185 -296 0
291 -295 -294 0
-291 295 0
-291 294 0
-289 295 294 0
289 -295 0
289 -294 0
285 -293 -292 0
-285 293 0
-285 292 0
-283 293 292 0
283 -293 0
283 -292 0
281 -291 -290 0
-281 291 0
-281 290 0
-279 291 290 0
279 -291 0
279 -290 0
277 -289 -288 0
-277 289 0
-277 288 0
-275 289 288 0
275 -289 0
275 -288 0
213 -287 -286 0
-213 287 0
-213 286 0
-211 287 286 0
211 -287 0
211 -286 0
209 -285 -284 0
-209 285 0
-209 284 0
-207 285 284 0
207 -285 0
207 -284 0
205 -283 -282 0
-205 283 0
-205 282 0
-203 283 282 0
203 -283 0
203 -282 0
201 -281 -280 0
-201 281 0
-201 280 0
-199 281 280 0
199 -281 0
199 -280 0
197 -279 -278 0
-197 279 0
-197 278 0
-195 279 278 0
195 -279 0
195 -278 0
193 -277 -276 0
-193 277 0
-193 276 0
-191 277 276 0
191 -277 0
191 -276 0
189 -275 -274 0
-189 275 0
-189 274 0
-187 275 274 0
187 -275 0
187 -274 0
231 -273 -272 0
-231 273 0
-231 272 0
-268 273 272 0
268 -273 0
268 -272 0
269 -271 -270 0
-269 271 0
-269 270 0
-256 271 270 0
256 -271 0
256 -270 0
260 -269 -268 0
-260 269 0
-260 268 0
-258 269 268 0
258 -269 0
258 -268 0
261 -267 -266 0
-261 267 0
-261 266 0
-262 267 266 0
262 -267 0
262 -266 0
263 -265 -264 0
-263 265 0
-263 264 0
-217 265 264 0
217 -265 0
217 -264 0
259 -263 -262 0
-259 263 0
-259 262 0
-257 263 262 0
257 -263 0
257 -262 0
229 -261 -260 0
-229 261 0
-229 260 0
-227 261 260 0
227 -261 0
227 -260 0
225 -259 -258 0
-225 259 0
-225 258 0
-223 259 258 0
223 -259 0
223 -258 0
221 -257 -256 0
-221 257 0
-221 256 0
-219 257 256 0
219 -257 0
219 -256 0
239 -255 -254 0
-239 255 0
-239 254 0
-250 255 254 0
250 -255 0
250 -254 0
251 -253 -252 0
-251 253 0
-251 252 0
-233 253 252 0
233 -253 0
233 -252 0
237 -251 -250 0
-237 251 0
-237 250 0
-235 251 250 0
235 -251 0
235 -250 0
243 -249 -248 0
-243 249 0
-243 248 0
-241 249 248 0
241 -249 0
241 -248 0
-244 247 0
-244 246 0
-244 245 0
244 -247 -246 -245 0
-242 245 247 0
-242 247 246 0
-242 246 245 0
242 -245 -247 0
242 -247 -246 0
242 -246 -245 0
-77 247 246 245 0
77 -247 0
77 -246 0
77 -245 0
240 -244 -243 0
-240 244 0
-240 243 0
-238 244 243 0
238 -244 0
238 -243 0
236 -242 -241 0
-236 242 0
-236 241 0
-234 242 241 0
234 -242 0
234 -241 0
232 -240 -239 0
-232 240 0
-232 239 0
-230 240 239 0
230 -240 0
230 -239 0
228 -238 -237 0
-228 238 0
-228 237 0
-226 238 237 0
226 -238 0
226 -237 0
224 -236 -235 0
-224 236 0
-224 235 0
-222 236 235 0
222 -236 0
222 -235 0
220 -234 -233 0
-220 234 0
-220 233 0
-218 234 233 0
218 -234 0
218 -233 0
216 -232 -231 0
-216 232 0
-216 231 0
-214 232 231 0
214 -232 0
214 -231 0
212 -230 -229 0
-212 230 0
-212 229 0
-210 230 229 0
210 -230 0
210 -229 0
208 -228 -227 0
-208 228 0
-208 227 0
-206 228 227 0
206 -228 0
206 -227 0
204 -226 -225 0
-204 226 0
-204 225 0
-202 226 225 0
202 -226 0
202 -225 0
200 -224 -223 0
-200 224 0
-200 223 0
-198 224 223 0
198 -224 0
198 -223 0
196 -222 -221 0
-196 222 0
-196 221 0
-194 222 221 0
194 -222 0
194 -221 0
192 -220 -219 0
-192 220 0
-192 219 0
-190 220 219 0
190 -220 0
190 -219 0
188 -218 -217 0
-188 218 0
-188 217 0
-186 218 217 0
186 -218 0
186 -217 0
79 -216 -215 0
-79 216 0
-79 215 0
-183 216 215 0
183 -216 0
183 -215 0
131 -214 -213 0
-131 214 0
-131 213 0
-153 214 213 0
153 -214 0
153 -213 0
101 -212 -211 0
-101 212 0
-101 211 0
-169 212 211 0
169 -212 0
169 -211 0
117 -210 -209 0
-117 210 0
-117 209 0
-139 210 209 0
139 -210 0
139 -209 0
87 -208 -207 0
-87 208 0
-87 207 0
-177 208 207 0
177 -208 0
177 -207 0
125 -206 -205 0
-125 206 0
-125 205 0
-147 206 205 0
147 -206 0
147 -205 0
95 -204 -203 0
-95 204 0
-95 203 0
-163 204 203 0
163 -204 0
163 -203 0
111 -202 -201 0
-111 202 0
-111 201 0
-133 202 201 0
133 -202 0
133 -201 0
81 -200 -199 0
-81 200 0
-81 199 0
-181 200 199 0
181 -200 0
181 -199 0
129 -198 -197 0
-129 198 0
-129 197 0
-151 198 197 0
151 -198 0
151 -197 0
99 -196 -195 0
-99 196 0
-99 195 0
-167 196 195 0
167 -196 0
167 -195 0
115 -194 -193 0
-115 194 0
-115 193 0
-137 194 193 0
137 -194 0
137 -193 0
85 -192 -191 0
-85 192 0
-85 191 0
-175 192 191 0
175 -192 0
175 -191 0
123 -190 -189 0
-123 190 0
-123 189 0
-145 190 189 0
145 -190 0
145 -189 0
93 -188 -187 0
-93 188 0
-93 187 0
-161 188 187 0
161 -188 0
161 -187 0
109 -186 -185 0
-109 186 0
-109 185 0
-184 -183 0
-179 184 183 0
179 -184 0
179 -183 0
180 -182 -181 0
-180 182 0
-180 181 0
-180 -179 0
-171 180 179 0
171 -180 0
171 -179 0
-178 -177 0
-173 178 177 0
173 -178 0
173 -177 0
174 -176 -175 0
-174 176 0
-174 175 0
172 -174 -173 0
-172 174 0
-172 173 0
-172 -171 0
-155 172 171 0
155 -172 0
155 -171 0
-170 -169 0
-165 170 169 0
165 -170 0
165 -169 0
166 -168 -167 0
-166 168 0
-166 167 0
-166 -165 0
-157 166 165 0
157 -166 0
157 -165 0
-164 -163 0
-159 164 163 0
159 -164 0
159 -163 0
160 -162 -161 0
-160 162 0
-160 161 0
158 -160 -159 0
-158 160 0
-158 159 0
156 -158 -157 0
-156 158 0
-156 157 0
-156 -155 0
-154 -153 0
-149 154 153 0
149 -154 0
149 -153 0
150 -152 -151 0
-150 152 0
-150 151 0
-150 -149 0
-141 150 149 0
141 -150 0
141 -149 0
-148 -147 0
-143 148 147 0
143 -148 0
143 -147 0
144 -146 -145 0
-144 146 0
-144 145 0
142 -144 -143 0
-142 144 0
-142 143 0
-142 -141 0
-140 -139 0
-135 140 139 0
135 -140 0
135 -139 0
136 -138 -137 0
-136 138 0
-136 137 0
-136 -135 0
-134 -133 0
-132 -131 0
-127 132 131 0
127 -132 0
127 -131 0
128 -130 -129 0
-128 130 0
-128 129 0
-128 -127 0
-119 128 127 0
119 -128 0
119 -127 0
-126 -125 0
-121 126 125 0
121 -126 0
121 -125 0
122 -124 -123 0
-122 124 0
-122 123 0
120 -122 -121 0
-120 122 0
-120 121 0
-120 -119 0
-103 120 119 0
103 -120 0
103 -119 0
-118 -117 0
-113 118 117 0
113 -118 0
113 -117 0
114 -116 -115 0
-114 116 0
-114 115 0
-114 -113 0
-105 114 113 0
105 -114 0
105 -113 0
-112 -111 0
-107 112 111 0
107 -112 0
107 -111 0
108 -110 -109 0
-108 110 0
-108 109 0
106 -108 -107 0
-106 108 0
-106 107 0
104 -106 -105 0
-104 106 0
-104 105 0
68 -104 -103 0
-68 104 0
-68 103 0
-102 -101 0
-97 102 101 0
97 -102 0
97 -101 0
98 -100 -99 0
-98 100 0
-98 99 0
-98 -97 0
-89 98 97 0
89 -98 0
89 -97 0
-96 -95 0
-91 96 95 0
91 -96 0
91 -95 0
92 -94 -93 0
-92 94 0
-92 93 0
90 -92 -91 0
-90 92 0
-90 91 0
70 -90 -89 0
-70 90 0
-70 89 0
-88 -87 0
-83 88 87 0
83 -88 0
83 -87 0
84 -86 -85 0
-84 86 0
-84 85 0
72 -84 -83 0
-72 84 0
-72 83 0
74 -82 -81 0
-74 82 0
-74 81 0
-80 -79 0
-75 80 79 0
75 -80 0
75 -79 0
76 -78 -77 0
-76 78 0
-76 77 0
73 -76 -75 0
-73 76 0
-73 75 0
-74 -73 0
-71 74 73 0
71 -74 0
71 -73 0
-72 -71 0
-69 72 71 0
69 -72 0
69 -71 0
-70 -69 0
-67 70 69 0
67 -70 0
67 -69 0
-68 -67 0
65 55 54 0
64 54 53 0
63 53 52 0
62 52 51 0
61 51 50 0
60 50 49 0
59 49 48 0
58 48 47 0
57 47 46 0
64 45 43 0
63 44 42 0
62 43 41 0
61 42 40 0
60 41 39 0
59 40 38 0
58 39 37 0
54 45 44 0
53 44 43 0
52 43 42 0
51 42 41 0
50 41 40 0
49 40 39 0
48 39 38 0
47 38 37 0
63 36 33 0
62 35 32 0
61 34 31 0
60 33 30 0
59 32 29 0
53 36 34 0
52 35 33 0
51 34 32 0
50 33 31 0
49 32 30 0
48 31 29 0
44 36 35 0
43 35 34 0
42 34 33 0
41 33 32 0
40 32 31 0
39 31 30 0
38 30 29 0
62 28 24 0
61 27 23 0
60 26 22 0
52 28 25 0
51 27 24 0
50 26 23 0
49 25 22 0
43 28 26 0
42 27 25 0
41 26 24 0
40 25 23 0
39 24 22 0
35 28 27 0
34 27 26 0
33 26 25 0
32 25 24 0
31 24 23 0
30 23 22 0
61 21 16 0
51 21 17 0
50 20 16 0
42 21 18 0
41 20 17 0
40 19 16 0
34 21 19 0
33 20 18 0
32 19 17 0
31 18 16 0
27 21 20 0
26 20 19 0
25 19 18 0
24 18 17 0
23 17 16 0
41 15 11 0
33 15 12 0
32 14 11 0
26 15 13 0
25 14 12 0
24 13 11 0
20 15 14 0
19 14 13 0
18 13 12 0
17 12 11 0
25 10 7 0
19 10 8 0
18 9 7 0
14 10 9 0
13 9 8 0
12 8 7 0
13 6 4 0
9 6 5 0
8 5 4 0
5 3 2 0
66 65 55 0
65 64 54 0
64 63 53 0
63 62 52 0
62 61 51 0
61 60 50 0
60 59 49 0
59 58 48 0
58 57 47 0
57 56 46 0
66 64 45 0
65 63 44 0
64 62 43 0
63 61 42 0
62 60 41 0
61 59 40 0
60 58 39 0
59 57 38 0
58 56 37 0
55 54 45 0
54 53 44 0
53 52 43 0
52 51 42 0
51 50 41 0
50 49 40 0
49 48 39 0
48 47 38 0
47 46 37 0
66 63 36 0
65 62 35 0
64 61 34 0
63 60 33 0
62 59 32 0
61 58 31 0
60 57 30 0
59 56 29 0
55 53 36 0
54 52 35 0
53 51 34 0
52 50 33 0
51 49 32 0
50 48 31 0
49 47 30 0
48 46 29 0
45 44 36 0
44 43 35 0
43 42 34 0
42 41 33 0
41 40 32 0
40 39 31 0
39 38 30 0
38 37 29 0
66 62 28 0
65 61 27 0
64 60 26 0
63 59 25 0
62 58 24 0
61 57 23 0
60 56 22 0
55 52 28 0
54 51 27 0
53 50 26 0
52 49 25 0
51 48 24 0
50 47 23 0
49 46 22 0
45 43 28 0
44 42 27 0
43 41 26 0
42 40 25 0
41 39 24 0
40 38 23 0
39 37 22 0
36 35 28 0
35 34 27 0
34 33 26 0
33 32 25 0
32 31 24 0
31 30 23 0
30 29 22 0
66 61 21 0
65 60 20 0
64 59 19 0
63 58 18 0
62 57 17 0
61 56 16 0
55 51 21 0
54 50 20 0
53 49 19 0
52 48 18 0
51 47 17 0
50 46 16 0
45 42 21 0
44 41 20 0
43 40 19 0
42 39 18 0
41 38 17 0
40 37 16 0
36 34 21 0
35 33 20 0
34 32 19 0
33 31 18 0
32 30 17 0
31 29 16 0
28 27 21 0
27 26 20 0
26 25 19 0
25 24 18 0
24 23 17 0
23 22 16 0
66 60 15 0
65 59 14 0
64 58 13 0
63 57 12 0
62 56 11 0
55 50 15 0
54 49 14 0
53 48 13 0
52 47 12 0
51 46 11 0
45 41 15 0
44 40 14 0
43 39 13 0
42 38 12 0
41 37 11 0
36 33 15 0
35 32 14 0
34 31 13 0
33 30 12 0
32 29 11 0
28 26 15 0
27 25 14 0
26 24 13 0
25 23 12 0
24 22 11 0
21 20 15 0
20 19 14 0
19 18 13 0
18 17 12 0
17 16 11 0
66 59 10 0
65 58 9 0
64 57 8 0
63 56 7 0
55 49 10 0
54 48 9 0
53 47 8 0
52 46 7 0
45 40 10 0
44 39 9 0
43 38 8 0
42 37 7 0
36 32 10 0
35 31 9 0
34 30 8 0
33 29 7 0
28 25 10 0
27 24 9 0
26 23 8 0
25 22 7 0
21 19 10 0
20 18 9 0
19 17 8 0
18 16 7 0
15 14 10 0
14 13 9 0
13 12 8 0
12 11 7 0
66 58 6 0
65 57 5 0
64 56 4 0
55 48 6 0
54 47 5 0
53 46 4 0
45 39 6 0
44 38 5 0
43 37 4 0
36 31 6 0
35 30 5 0
34 29 4 0
28 24 6 0
27 23 5 0
26 22 4 0
21 18 6 0
20 17 5 0
19 16 4 0
15 13 6 0
14 12 5 0
13 11 4 0
10 9 6 0
9 8 5 0
8 7 4 0
66 57 3 0
65 56 2 0
55 47 3 0
54 46 2 0
45 38 3 0
44 37 2 0
36 30 3 0
35 29 2 0
28 23 3 0
27 22 2 0
21 17 3 0
20 16 2 0
15 12 3 0
14 11 2 0
10 8 3 0
9 7 2 0
6 5 3 0
5 4 2 0
66 56 1 0
55 46 1 0
45 37 1 0
36 29 1 0
28 22 1 0
21 16 1 0
15 11 1 0
10 7 1 0
6 4 1 0
3 2 1 0
